x =  40;
y =  25;
c = 137;

n =  29;

// Let's index products with letters: A, B, C, ...

//     B   A   C   E   D   F   G   I   H   K   J   L   M   N   O   P   Q   R   S   T   U   V   W   X   Y   Z   [   \   ]
p = [  7   2   4   7   2   6   5   9   1   9   3   1   9   1   6   8   5   1   7   3   2   2   1   8   6   1   2   7   7  ];
w = [  9   4   7   7   2   7   7   9   4   7   8   8   6   5   5   5   3   8   2   5   5   4   8   5   7   6   9   1   6  ];
s = [  14   14   14   12   12   12   11   11   11   6   6   5   1   1   1   1   1   1   1   1   1   1   1   1   1   1   1   1   1  ];
